c "908466.clq"
p edge 80 304
e 1 5
e 1 6
e 1 7
e 1 8
e 1 13
e 1 17
e 1 24
e 1 32
e 1 35
e 1 37
e 1 41
e 1 46
e 1 60
e 1 62
e 1 64
e 1 72
e 1 73
e 1 75
e 2 5
e 2 6
e 2 10
e 2 11
e 2 13
e 2 14
e 2 17
e 2 18
e 2 20
e 2 28
e 2 37
e 2 43
e 2 58
e 2 59
e 2 63
e 2 65
e 2 75
e 2 77
e 3 5
e 3 8
e 3 14
e 3 15
e 3 22
e 3 23
e 3 27
e 3 29
e 3 37
e 3 40
e 3 46
e 3 62
e 4 5
e 4 6
e 4 7
e 4 9
e 4 11
e 4 51
e 4 56
e 5 6
e 5 7
e 5 8
e 5 9
e 5 10
e 5 11
e 5 12
e 5 13
e 5 15
e 5 16
e 5 17
e 5 19
e 5 22
e 5 25
e 5 27
e 5 28
e 5 34
e 5 38
e 5 39
e 5 43
e 5 50
e 5 60
e 5 61
e 5 66
e 5 67
e 5 69
e 5 72
e 5 76
e 6 7
e 6 8
e 6 10
e 6 12
e 6 15
e 6 24
e 6 29
e 6 32
e 6 33
e 6 39
e 6 49
e 6 52
e 6 54
e 6 69
e 6 71
e 6 78
e 7 9
e 7 10
e 7 20
e 7 21
e 7 28
e 7 35
e 7 40
e 7 56
e 7 57
e 8 9
e 8 16
e 8 19
e 8 21
e 8 24
e 8 25
e 8 26
e 8 34
e 8 38
e 8 41
e 8 44
e 8 50
e 8 57
e 8 64
e 8 70
e 8 77
e 9 12
e 9 14
e 9 29
e 9 39
e 9 53
e 10 11
e 10 12
e 10 13
e 10 16
e 10 19
e 10 31
e 10 33
e 10 39
e 10 43
e 10 60
e 10 65
e 10 71
e 11 15
e 11 16
e 11 18
e 11 23
e 11 36
e 11 47
e 11 48
e 11 52
e 11 58
e 11 69
e 11 78
e 12 14
e 12 18
e 12 19
e 12 20
e 12 22
e 12 34
e 12 36
e 12 42
e 12 52
e 12 56
e 12 62
e 12 80
e 14 23
e 14 38
e 15 20
e 15 24
e 15 27
e 15 28
e 15 29
e 15 30
e 15 33
e 15 46
e 15 47
e 15 54
e 15 71
e 16 17
e 16 21
e 16 25
e 16 26
e 16 32
e 16 34
e 16 42
e 16 45
e 16 53
e 16 57
e 16 63
e 16 64
e 16 68
e 17 18
e 17 27
e 17 51
e 17 77
e 18 30
e 18 61
e 19 21
e 19 23
e 19 25
e 19 30
e 19 31
e 19 32
e 19 33
e 19 36
e 19 37
e 19 47
e 19 49
e 19 50
e 19 53
e 19 54
e 19 59
e 19 67
e 19 75
e 20 36
e 20 40
e 20 43
e 20 51
e 20 67
e 21 22
e 21 26
e 21 31
e 21 45
e 21 62
e 21 71
e 21 74
e 22 30
e 22 41
e 22 50
e 22 64
e 22 80
e 23 38
e 23 42
e 23 49
e 23 55
e 23 68
e 23 72
e 24 59
e 24 79
e 25 26
e 25 35
e 25 44
e 25 61
e 25 72
e 26 41
e 26 48
e 28 31
e 28 52
e 28 58
e 29 35
e 29 44
e 29 48
e 29 79
e 30 44
e 30 74
e 31 60
e 31 61
e 32 79
e 33 47
e 34 49
e 34 68
e 34 78
e 35 53
e 35 55
e 35 69
e 35 80
e 36 48
e 36 59
e 37 42
e 37 55
e 37 68
e 37 75
e 38 40
e 38 55
e 39 46
e 39 70
e 40 45
e 41 76
e 42 51
e 42 57
e 43 70
e 43 74
e 44 45
e 44 67
e 44 73
e 45 56
e 48 54
e 49 58
e 50 63
e 51 78
e 52 65
e 52 70
e 52 80
e 54 65
e 54 66
e 56 79
e 57 63
e 59 66
e 60 73
e 60 77
e 61 66
e 61 74
e 61 76
e 71 73
e 75 76
